Route 1: 82 78 76 71 70 73 77 79 80 83 94
Route 2: 81 86 98 92 84 85 88 75 61 72
Route 3: 89 87 91 90 93 3 100 99 97 95 96
Route 4: 65 63 62 74 2 64 68 66 69
Route 5: 67 55 57 53 54 1 6 4 7 5 59
Route 6: 42 41 40 56 58 60 47 43 48 49 20
Route 7: 13 17 8 10 11 9 21 26 22 51 50
Route 8: 28 25 46 44 52 45 24 23 32 31 29
Route 9: 12 14 27 15 30 16 19 18
Route 10: 33 35 38 39 36 37 34
Vehicles: 10
Distance: 1654.69
